
Gurobi 9.5.2 (mac64[arm]) logging started Fri Apr 28 18:12:14 2023

Set parameter LogFile to value "Java/output/iterative_model_2_machine/scenario_seed_0_nJob_40_machineCount_2/mip_increment_1/log.txt"
Gurobi Optimizer version 9.5.2 build v9.5.2rc0 (mac64[arm])
Thread count: 8 physical cores, 8 logical processors, using up to 8 threads
Optimize a model with 2189 rows, 15840 columns and 211024 nonzeros
Model fingerprint: 0x2ac1374b
Variable types: 0 continuous, 15840 integer (15840 binary)
Coefficient statistics:
  Matrix range     [1e+00, 2e+02]
  Objective range  [6e+01, 3e+06]
  Bounds range     [1e+00, 1e+00]
  RHS range        [1e+00, 1e+00]
Presolve removed 289 rows and 2881 columns
Presolve time: 0.22s
Presolved: 1900 rows, 12959 columns, 173379 nonzeros
Variable types: 0 continuous, 12959 integer (12959 binary)

Root relaxation: objective 8.920129e+04, 3054 iterations, 0.18 seconds (0.44 work units)

    Nodes    |    Current Node    |     Objective Bounds      |     Work
 Expl Unexpl |  Obj  Depth IntInf | Incumbent    BestBd   Gap | It/Node Time

     0     0 89201.2911    0  167          - 89201.2911      -     -    0s
H    0     0                    1.340430e+07 89201.2911  99.3%     -    0s
H    0     0                    5361792.0000 89201.2911  98.3%     -    0s
H    0     0                    4574144.0000 89201.2911  98.0%     -    0s
H    0     0                    3465568.0000 89201.2911  97.4%     -    0s
     0     0 98187.7281    0  219 3465568.00 98187.7281  97.2%     -    1s
H    0     0                    2157840.0000 98187.7281  95.4%     -    1s
     0     0 106233.127    0  227 2157840.00 106233.127  95.1%     -    1s
     0     0 106535.968    0  227 2157840.00 106535.968  95.1%     -    1s
     0     0 106536.282    0  227 2157840.00 106536.282  95.1%     -    1s
     0     0 140210.658    0  241 2157840.00 140210.658  93.5%     -    1s
H    0     0                    2157744.0000 140210.658  93.5%     -    1s
     0     0 151968.357    0  238 2157744.00 151968.357  93.0%     -    1s
     0     0 152383.166    0  247 2157744.00 152383.166  92.9%     -    2s
     0     0 152390.037    0  250 2157744.00 152390.037  92.9%     -    2s
     0     0 162982.421    0  247 2157744.00 162982.421  92.4%     -    2s
H    0     0                    1681808.0000 162982.421  90.3%     -    2s
     0     0 164300.710    0  275 1681808.00 164300.710  90.2%     -    2s
     0     0 164334.063    0  275 1681808.00 164334.063  90.2%     -    2s
     0     0 164338.070    0  277 1681808.00 164338.070  90.2%     -    2s
     0     0 172957.421    0  296 1681808.00 172957.421  89.7%     -    3s
H    0     0                    693024.00000 178636.105  74.2%     -    3s
H    0     0                    690368.00000 178636.105  74.1%     -    3s
     0     0 178636.105    0  287 690368.000 178636.105  74.1%     -    3s
H    0     0                    668576.00000 179498.371  73.2%     -    3s
     0     0 179498.371    0  291 668576.000 179498.371  73.2%     -    3s
     0     0 179514.384    0  291 668576.000 179514.384  73.1%     -    3s
     0     0 183687.687    0  320 668576.000 183687.687  72.5%     -    3s
H    0     0                    634160.00000 184267.911  70.9%     -    4s
     0     0 184267.911    0  326 634160.000 184267.911  70.9%     -    4s
     0     0 184304.376    0  332 634160.000 184304.376  70.9%     -    4s
     0     0 184306.167    0  339 634160.000 184306.167  70.9%     -    4s
     0     0 186947.341    0  326 634160.000 186947.341  70.5%     -    4s
     0     0 187454.881    0  331 634160.000 187454.881  70.4%     -    4s
     0     0 187541.991    0  325 634160.000 187541.991  70.4%     -    4s
     0     0 187546.156    0  330 634160.000 187546.156  70.4%     -    4s
     0     0 189500.545    0  341 634160.000 189500.545  70.1%     -    4s
     0     0 189683.599    0  361 634160.000 189683.599  70.1%     -    4s
     0     0 189734.249    0  355 634160.000 189734.249  70.1%     -    4s
     0     0 189745.067    0  364 634160.000 189745.067  70.1%     -    4s
     0     0 191408.705    0  361 634160.000 191408.705  69.8%     -    5s
     0     0 191610.179    0  360 634160.000 191610.179  69.8%     -    5s
     0     0 191633.809    0  360 634160.000 191633.809  69.8%     -    5s
     0     0 192820.111    0  345 634160.000 192820.111  69.6%     -    5s
H    0     0                    556544.00000 192820.111  65.4%     -    5s
     0     0 193036.662    0  337 556544.000 193036.662  65.3%     -    5s
     0     0 193043.561    0  337 556544.000 193043.561  65.3%     -    5s
     0     0 194002.039    0  340 556544.000 194002.039  65.1%     -    5s
H    0     0                    548224.00000 194002.039  64.6%     -    5s
H    0     0                    512320.00000 194002.039  62.1%     -    6s
     0     0 194301.962    0  358 512320.000 194301.962  62.1%     -    6s
     0     0 194307.692    0  357 512320.000 194307.692  62.1%     -    6s
     0     0 194625.219    0  352 512320.000 194625.219  62.0%     -    6s
     0     0 194706.465    0  344 512320.000 194706.465  62.0%     -    6s
     0     0 194728.096    0  357 512320.000 194728.096  62.0%     -    6s
     0     0 194894.334    0  348 512320.000 194894.334  62.0%     -    6s
     0     0 194894.334    0  348 512320.000 194894.334  62.0%     -    6s
     0     0 194903.252    0  164 512320.000 194903.252  62.0%     -    7s
H    0     0                    501232.00000 194903.252  61.1%     -    7s
     0     0 194903.252    0  234 501232.000 194903.252  61.1%     -    7s
H    0     0                    498816.00000 194903.252  60.9%     -    7s
     0     0 194903.252    0  292 498816.000 194903.252  60.9%     -    8s
     0     0 194903.252    0  317 498816.000 194903.252  60.9%     -    8s
     0     0 194903.252    0  334 498816.000 194903.252  60.9%     -    8s
     0     0 194903.252    0  341 498816.000 194903.252  60.9%     -    8s
     0     0 194903.252    0  342 498816.000 194903.252  60.9%     -    8s
     0     0 194903.252    0  339 498816.000 194903.252  60.9%     -    8s
     0     0 194903.252    0  342 498816.000 194903.252  60.9%     -    8s
     0     0 195667.832    0  366 498816.000 195667.832  60.8%     -    8s
     0     0 195777.642    0  368 498816.000 195777.642  60.8%     -    8s
     0     0 195828.017    0  376 498816.000 195828.017  60.7%     -    8s
     0     0 200286.510    0  374 498816.000 200286.510  59.8%     -    9s
H    0     0                    493488.00000 200286.510  59.4%     -    9s
     0     0 201531.239    0  368 493488.000 201531.239  59.2%     -    9s
     0     0 201880.626    0  393 493488.000 201880.626  59.1%     -    9s
H    0     0                    490960.00000 201880.626  58.9%     -    9s
     0     0 201913.376    0  386 490960.000 201913.376  58.9%     -    9s
     0     0 204108.777    0  375 490960.000 204108.777  58.4%     -   10s
     0     0 204614.472    0  393 490960.000 204614.472  58.3%     -   10s
     0     0 204761.654    0  394 490960.000 204761.654  58.3%     -   10s
     0     0 204792.949    0  388 490960.000 204792.949  58.3%     -   10s
     0     0 205119.014    0  405 490960.000 205119.014  58.2%     -   10s
     0     0 205247.125    0  395 490960.000 205247.125  58.2%     -   10s
     0     0 205308.549    0  402 490960.000 205308.549  58.2%     -   10s
     0     0 205603.740    0  411 490960.000 205603.740  58.1%     -   10s
     0     0 205603.740    0  409 490960.000 205603.740  58.1%     -   10s
H    0     0                    473760.00000 205637.190  56.6%     -   11s
     0     2 205637.190    0  408 473760.000 205637.190  56.6%     -   11s
H   31    40                    413968.00000 209588.699  49.4%  1123   13s
H   72    81                    408352.00000 210275.131  48.5%  1004   14s
H  102   111                    381936.00000 211357.892  44.7%   945   14s
   121   135 229571.634   12  254 381936.000 211831.881  44.5%   920   15s
H  129   135                    381920.00000 211831.881  44.5%   903   15s
H  137   150                    381904.00000 211831.881  44.5%   870   15s
H  141   150                    364672.00000 211831.881  41.9%   865   15s
H  184   194                    341248.00000 212274.194  37.8%   801   16s
H  188   194                    329280.00000 212274.194  35.5%   797   16s
H  397   382                    320368.00000 212274.194  33.7%   599   18s
   596   543 226160.518   12  318 320368.000 212833.982  33.6%   564   20s
H  862   690                    307696.00000 212833.982  30.8%   511   22s
H 1002   775                    305264.00000 212833.982  30.3%   501   23s
  1202   921 228771.934   11  386 305264.000 213145.258  30.2%   507   25s
H 1454   779                    275008.00000 213145.258  22.5%   510   27s
H 1456   733                    272768.00000 213145.258  21.9%   509   28s
H 1467   703                    268480.00000 213145.258  20.6%   505   30s
H 1474   672                    264080.00000 213145.258  19.3%   503   30s
H 1482   643                    258896.00000 213145.258  17.7%   500   31s
  1552   690 232829.418   12  540 258896.000 213752.213  17.4%   478   35s
H 1563   662                    250864.00000 213833.883  14.8%   494   36s
  1570   674 225065.769   14  323 250864.000 216049.036  13.9%   497   40s
  1692   730     cutoff   21      250864.000 219410.958  12.5%   538   45s
  1916   710 227521.506   20  283 250864.000 219814.013  12.4%   562   50s
* 2159   656              24    246768.00000 221618.113  10.2%   598   53s
  2232   640 235746.000   22  402 246768.000 221618.113  10.2%   604   55s
H 2241   604                    246592.00000 221618.113  10.1%   605   55s
H 2299   561                    245776.00000 224793.001  8.54%   605   56s
H 2476   490                    244128.00000 229624.159  5.94%   617   59s
  2514   474 240992.414   27  192 244128.000 229704.503  5.91%   619   60s
  2881   307     cutoff   23      244128.000 233576.703  4.32%   635   65s

Cutting planes:
  Cover: 5
  Clique: 116
  MIR: 335
  StrongCG: 164
  Flow cover: 159
  GUB cover: 108
  Zero half: 8
  Mod-K: 1
  RLT: 7

Explored 3370 nodes (2129700 simplex iterations) in 69.27 seconds (205.38 work units)
Thread count was 8 (of 8 available processors)

Solution count 10: 244128 245776 246592 ... 275008

Optimal solution found (tolerance 1.00e-04)
Best objective 2.441280000000e+05, best bound 2.441280000000e+05, gap 0.0000%

Gurobi 9.5.2 (mac64[arm]) logging started Fri Apr 28 18:13:23 2023

Set parameter LogFile to value "Java/output/iterative_model_2_machine/scenario_seed_0_nJob_40_machineCount_2/mip_increment_1/log.txt"
Gurobi Optimizer version 9.5.2 build v9.5.2rc0 (mac64[arm])
Thread count: 8 physical cores, 8 logical processors, using up to 8 threads
Optimize a model with 2171 rows, 8811 columns and 107358 nonzeros
Model fingerprint: 0x39295a84
Variable types: 0 continuous, 8811 integer (8811 binary)
Coefficient statistics:
  Matrix range     [1e+00, 2e+02]
  Objective range  [3e+02, 5e+05]
  Bounds range     [1e+00, 1e+00]
  RHS range        [1e+00, 1e+00]
Found heuristic solution: objective 1898856.0000
Presolve removed 774 rows and 1034 columns
Presolve time: 0.12s
Presolved: 1397 rows, 7777 columns, 94618 nonzeros
Variable types: 0 continuous, 7777 integer (7777 binary)
Found heuristic solution: objective 1353432.0000

Root relaxation: objective 1.044698e+04, 1527 iterations, 0.05 seconds (0.11 work units)

    Nodes    |    Current Node    |     Objective Bounds      |     Work
 Expl Unexpl |  Obj  Depth IntInf | Incumbent    BestBd   Gap | It/Node Time

     0     0 10446.9834    0   91 1353432.00 10446.9834  99.2%     -    0s
H    0     0                    745196.00000 10446.9834  98.6%     -    0s
H    0     0                    355440.00000 10446.9834  97.1%     -    0s
H    0     0                    303324.00000 10446.9834  96.6%     -    0s
H    0     0                    278592.00000 10446.9834  96.3%     -    0s
     0     0 10640.7063    0  127 278592.000 10640.7063  96.2%     -    0s
H    0     0                    135416.00000 10640.7063  92.1%     -    0s
H    0     0                    93412.000000 10640.7063  88.6%     -    0s
H    0     0                    34428.000000 10640.7063  69.1%     -    0s
     0     0 10715.3221    0  126 34428.0000 10715.3221  68.9%     -    0s
     0     0 10715.3221    0  127 34428.0000 10715.3221  68.9%     -    0s
     0     0 10921.4193    0  115 34428.0000 10921.4193  68.3%     -    0s
     0     0 10921.4193    0   90 34428.0000 10921.4193  68.3%     -    0s
H    0     0                    32244.000000 10921.4193  66.1%     -    0s
H    0     0                    32204.000000 10921.4193  66.1%     -    0s
     0     0 10921.4193    0  150 32204.0000 10921.4193  66.1%     -    0s
H    0     0                    32168.000000 10921.4193  66.0%     -    1s
     0     0 10925.5147    0  118 32168.0000 10925.5147  66.0%     -    1s
     0     0 10932.3761    0  123 32168.0000 10932.3761  66.0%     -    1s
     0     0 10934.6805    0  126 32168.0000 10934.6805  66.0%     -    1s
H    0     0                    17340.000000 10934.6805  36.9%     -    1s
     0     0 10946.7816    0  132 17340.0000 10946.7816  36.9%     -    1s
     0     0 10946.7919    0  135 17340.0000 10946.7919  36.9%     -    1s
     0     0 11198.6149    0  144 17340.0000 11198.6149  35.4%     -    1s
     0     0 11206.9336    0  143 17340.0000 11206.9336  35.4%     -    1s
     0     0 11212.1503    0  148 17340.0000 11212.1503  35.3%     -    1s
     0     0 11212.1566    0  151 17340.0000 11212.1566  35.3%     -    1s
     0     0 11425.5220    0  118 17340.0000 11425.5220  34.1%     -    1s
H    0     0                    14120.000000 11425.5220  19.1%     -    1s
     0     0 11493.0078    0  128 14120.0000 11493.0078  18.6%     -    1s
     0     0 11495.8427    0  130 14120.0000 11495.8427  18.6%     -    1s
     0     0 11496.1656    0  139 14120.0000 11496.1656  18.6%     -    1s
     0     0 11778.7318    0  145 14120.0000 11778.7318  16.6%     -    1s
     0     0 11862.8786    0  145 14120.0000 11862.8786  16.0%     -    1s
     0     0 11868.6563    0  156 14120.0000 11868.6563  15.9%     -    1s
     0     0 11868.7743    0  163 14120.0000 11868.7743  15.9%     -    1s
     0     0 12045.8910    0  140 14120.0000 12045.8910  14.7%     -    1s
     0     0 12045.8910    0   96 14120.0000 12045.8910  14.7%     -    1s
H    0     0                    14056.000000 12045.8910  14.3%     -    1s
     0     0 12045.8910    0  115 14056.0000 12045.8910  14.3%     -    1s
     0     0 12071.2918    0  121 14056.0000 12071.2918  14.1%     -    1s
     0     0 12091.1234    0  127 14056.0000 12091.1234  14.0%     -    1s
     0     0 12125.8486    0  127 14056.0000 12125.8486  13.7%     -    1s
     0     0 12128.1931    0  129 14056.0000 12128.1931  13.7%     -    1s
     0     0 12129.2966    0  132 14056.0000 12129.2966  13.7%     -    1s
     0     0 12129.2966    0  131 14056.0000 12129.2966  13.7%     -    1s
     0     0 12187.0391    0  125 14056.0000 12187.0391  13.3%     -    1s
     0     0 12187.4162    0  131 14056.0000 12187.4162  13.3%     -    1s
     0     0 12200.7164    0  132 14056.0000 12200.7164  13.2%     -    1s
H    0     0                    12560.000000 12200.7164  2.86%     -    1s
     0     0 12206.9381    0  147 12560.0000 12206.9381  2.81%     -    1s
     0     0 12208.1967    0  142 12560.0000 12208.1967  2.80%     -    1s
     0     0 12208.3051    0  144 12560.0000 12208.3051  2.80%     -    1s
     0     0 12286.9719    0  132 12560.0000 12286.9719  2.17%     -    1s
     0     0 12286.9719    0  106 12560.0000 12286.9719  2.17%     -    1s
     0     0 12286.9719    0  124 12560.0000 12286.9719  2.17%     -    1s
     0     0 12330.4364    0  114 12560.0000 12330.4364  1.83%     -    1s
     0     0 12374.2645    0  123 12560.0000 12374.2645  1.48%     -    1s
     0     0 12376.4790    0  126 12560.0000 12376.4790  1.46%     -    1s
     0     0 12376.9512    0  130 12560.0000 12376.9512  1.46%     -    1s
     0     0 12425.2414    0   98 12560.0000 12425.2414  1.07%     -    1s
     0     0 12425.2414    0  100 12560.0000 12425.2414  1.07%     -    1s
     0     0 12462.3135    0  112 12560.0000 12462.3135  0.78%     -    1s
     0     0 12462.6310    0  115 12560.0000 12462.6310  0.78%     -    1s
     0     0 12468.8000    0   95 12560.0000 12468.8000  0.73%     -    1s
     0     0 12468.8000    0   97 12560.0000 12468.8000  0.73%     -    1s
     0     0 12497.6000    0  115 12560.0000 12497.6000  0.50%     -    1s
     0     0 12498.4000    0  117 12560.0000 12498.4000  0.49%     -    1s
     0     0 12499.2727    0  116 12560.0000 12499.2727  0.48%     -    1s
     0     0     cutoff    0      12560.0000 12560.0000  0.00%     -    1s

Cutting planes:
  Gomory: 1
  Cover: 5
  Clique: 16
  MIR: 17
  StrongCG: 9
  GUB cover: 32
  Zero half: 22
  RLT: 3

Explored 1 nodes (19282 simplex iterations) in 1.99 seconds (3.01 work units)
Thread count was 8 (of 8 available processors)

Solution count 10: 12560 14056 14120 ... 83112

Optimal solution found (tolerance 1.00e-04)
Best objective 1.256000000000e+04, best bound 1.256000000000e+04, gap 0.0000%

Gurobi 9.5.2 (mac64[arm]) logging started Fri Apr 28 18:13:25 2023

Set parameter LogFile to value "Java/output/iterative_model_2_machine/scenario_seed_0_nJob_40_machineCount_2/mip_increment_1/log.txt"
Gurobi Optimizer version 9.5.2 build v9.5.2rc0 (mac64[arm])
Thread count: 8 physical cores, 8 logical processors, using up to 8 threads
Optimize a model with 2178 rows, 6838 columns and 77178 nonzeros
Model fingerprint: 0xd8f01408
Variable types: 0 continuous, 6838 integer (6838 binary)
Coefficient statistics:
  Matrix range     [1e+00, 2e+02]
  Objective range  [9e+01, 5e+04]
  Bounds range     [1e+00, 1e+00]
  RHS range        [1e+00, 1e+00]
Presolve removed 1202 rows and 1294 columns
Presolve time: 0.08s
Presolved: 976 rows, 5544 columns, 61744 nonzeros
Variable types: 0 continuous, 5544 integer (5544 binary)

Root relaxation: objective 4.759929e+03, 1632 iterations, 0.04 seconds (0.08 work units)

    Nodes    |    Current Node    |     Objective Bounds      |     Work
 Expl Unexpl |  Obj  Depth IntInf | Incumbent    BestBd   Gap | It/Node Time

     0     0 4759.92887    0   59          - 4759.92887      -     -    0s
H    0     0                    71802.000000 4759.92887  93.4%     -    0s
H    0     0                    56942.000000 4759.92887  91.6%     -    0s
H    0     0                    56912.000000 4759.92887  91.6%     -    0s
H    0     0                    44869.000000 4759.92887  89.4%     -    0s
     0     0 5009.15730    0   88 44869.0000 5009.15730  88.8%     -    0s
H    0     0                    31044.000000 5009.15730  83.9%     -    0s
     0     0 5155.42793    0   98 31044.0000 5155.42793  83.4%     -    0s
H    0     0                    31042.000000 5155.42793  83.4%     -    0s
     0     0 5155.53119    0   99 31042.0000 5155.53119  83.4%     -    0s
     0     0 5301.07118    0  126 31042.0000 5301.07118  82.9%     -    0s
H    0     0                    14732.000000 5301.07118  64.0%     -    0s
     0     0 5355.78016    0  137 14732.0000 5355.78016  63.6%     -    0s
     0     0 5359.32806    0  134 14732.0000 5359.32806  63.6%     -    0s
H    0     0                    12607.000000 5359.32806  57.5%     -    0s
H    0     0                    6211.0000000 5359.32806  13.7%     -    0s
     0     0 5475.47449    0  148 6211.00000 5475.47449  11.8%     -    0s
     0     0 5475.47449    0   61 6211.00000 5475.47449  11.8%     -    0s
     0     0 5475.47449    0   85 6211.00000 5475.47449  11.8%     -    0s
H    0     0                    5889.0000000 5475.47449  7.02%     -    0s
     0     0 5506.18811    0  110 5889.00000 5506.18811  6.50%     -    0s
     0     0 5534.16141    0  108 5889.00000 5534.16141  6.03%     -    0s
     0     0 5534.51716    0  105 5889.00000 5534.51716  6.02%     -    0s
     0     0 5571.29534    0  108 5889.00000 5571.29534  5.39%     -    0s
     0     0 5572.04008    0  109 5889.00000 5572.04008  5.38%     -    0s
     0     0 5572.10074    0  108 5889.00000 5572.10074  5.38%     -    0s
     0     0 5598.84127    0   59 5889.00000 5598.84127  4.93%     -    0s
H    0     0                    5887.0000000 5598.84127  4.89%     -    0s
     0     0 5607.04931    0   97 5887.00000 5607.04931  4.76%     -    0s
     0     0 5607.78125    0   81 5887.00000 5607.78125  4.74%     -    0s
     0     0 5613.91837    0   75 5887.00000 5613.91837  4.64%     -    0s
     0     0 5615.02573    0   76 5887.00000 5615.02573  4.62%     -    0s
     0     0 5616.96429    0   54 5887.00000 5616.96429  4.59%     -    0s
     0     0 5618.57143    0   54 5887.00000 5618.57143  4.56%     -    0s
     0     0 5618.71429    0   56 5887.00000 5618.71429  4.56%     -    0s
     0     0 5619.65000    0   51 5887.00000 5619.65000  4.54%     -    0s
H    0     0                    5834.0000000 5619.65000  3.67%     -    0s
     0     0 5619.66667    0   51 5834.00000 5619.66667  3.67%     -    0s
     0     0 5619.66667    0   57 5834.00000 5619.66667  3.67%     -    1s
     0     0 5619.66667    0   86 5834.00000 5619.66667  3.67%     -    1s
     0     0 5619.66667    0   61 5834.00000 5619.66667  3.67%     -    1s
     0     0 5619.66667    0   51 5834.00000 5619.66667  3.67%     -    1s
     0     0 5619.66667    0   58 5834.00000 5619.66667  3.67%     -    1s
     0     0 5619.66667    0   79 5834.00000 5619.66667  3.67%     -    1s
     0     0 5619.66667    0   80 5834.00000 5619.66667  3.67%     -    1s
     0     0 5619.66667    0   90 5834.00000 5619.66667  3.67%     -    1s
     0     0 5619.66667    0   81 5834.00000 5619.66667  3.67%     -    1s
H    0     0                    5805.0000000 5619.66667  3.19%     -    1s
     0     0 5626.56664    0   93 5805.00000 5626.56664  3.07%     -    1s
     0     0 5626.67857    0   88 5805.00000 5626.67857  3.07%     -    1s
     0     0 5652.66667    0   55 5805.00000 5652.66667  2.62%     -    1s
     0     0 5652.66667    0   52 5805.00000 5652.66667  2.62%     -    1s
     0     0 5653.00000    0   53 5805.00000 5653.00000  2.62%     -    1s
     0     0 5659.42117    0   94 5805.00000 5659.42117  2.51%     -    1s
     0     0 5660.90556    0   66 5805.00000 5660.90556  2.48%     -    1s
     0     0 5660.90556    0   66 5805.00000 5660.90556  2.48%     -    1s
H    0     0                    5804.0000000 5690.69253  1.95%     -    1s
     0     0 5690.69253    0   49 5804.00000 5690.69253  1.95%     -    1s
     0     0 5690.69253    0   62 5804.00000 5690.69253  1.95%     -    1s
     0     0 5690.69253    0   64 5804.00000 5690.69253  1.95%     -    1s
     0     0 5690.69253    0   80 5804.00000 5690.69253  1.95%     -    1s
     0     0 5690.69253    0   38 5804.00000 5690.69253  1.95%     -    1s
     0     0 5690.69253    0   60 5804.00000 5690.69253  1.95%     -    1s
H    0     0                    5713.0000000 5690.69253  0.39%     -    1s

Cutting planes:
  Gomory: 1
  Cover: 2
  Clique: 2
  MIR: 15
  StrongCG: 4
  GUB cover: 17
  Zero half: 5
  RLT: 1

Explored 1 nodes (8923 simplex iterations) in 1.28 seconds (1.80 work units)
Thread count was 8 (of 8 available processors)

Solution count 10: 5713 5804 5805 ... 6211

Optimal solution found (tolerance 1.00e-04)
Best objective 5.713000000000e+03, best bound 5.713000000000e+03, gap 0.0000%

Gurobi 9.5.2 (mac64[arm]) logging started Fri Apr 28 18:13:27 2023

Set parameter LogFile to value "Java/output/iterative_model_2_machine/scenario_seed_0_nJob_40_machineCount_2/mip_increment_1/log.txt"
Gurobi Optimizer version 9.5.2 build v9.5.2rc0 (mac64[arm])
Thread count: 8 physical cores, 8 logical processors, using up to 8 threads
Optimize a model with 2314 rows, 42592 columns and 531384 nonzeros
Model fingerprint: 0xeaa53f87
Variable types: 0 continuous, 42592 integer (42592 binary)
Coefficient statistics:
  Matrix range     [1e+00, 2e+02]
  Objective range  [1e+00, 3e+06]
  Bounds range     [1e+00, 1e+00]
  RHS range        [1e+00, 1e+00]

Warning: Completing partial solution with 42471 unfixed non-continuous variables out of 42592
User MIP start produced solution with objective 257851 (0.03s)
Loaded user MIP start with objective 257851

Presolve removed 144 rows and 6272 columns
Presolve time: 0.53s
Presolved: 2170 rows, 36320 columns, 455704 nonzeros
Variable types: 0 continuous, 36320 integer (36320 binary)
Found heuristic solution: objective 257850.00000

Root simplex log...

Iteration    Objective       Primal Inf.    Dual Inf.      Time
   31810    9.5185074e+04   4.550607e+04   0.000000e+00      5s
Warning: Markowitz tolerance tightened to 0.125
   42174    9.7531969e+04   0.000000e+00   0.000000e+00      7s

Root relaxation: objective 9.753197e+04, 42174 iterations, 6.65 seconds (17.68 work units)

    Nodes    |    Current Node    |     Objective Bounds      |     Work
 Expl Unexpl |  Obj  Depth IntInf | Incumbent    BestBd   Gap | It/Node Time

     0     0 97531.9687    0  543 257850.000 97531.9687  62.2%     -    7s
     0     0 102660.380    0  693 257850.000 102660.380  60.2%     -   13s
     0     0 123814.974    0  698 257850.000 123814.974  52.0%     -   25s
     0     0 123814.974    0  727 257850.000 123814.974  52.0%     -   26s
     0     0 123814.974    0  734 257850.000 123814.974  52.0%     -   26s
     0     0 129245.372    0  731 257850.000 129245.372  49.9%     -   36s
     0     0 134951.990    0  783 257850.000 134951.990  47.7%     -   44s
     0     0 135334.128    0  773 257850.000 135334.128  47.5%     -   51s
     0     0 135353.374    0  800 257850.000 135353.374  47.5%     -   52s
     0     0 135353.525    0  809 257850.000 135353.525  47.5%     -   52s
     0     0 143637.916    0  801 257850.000 143637.916  44.3%     -   62s
     0     0 144799.078    0  840 257850.000 144799.078  43.8%     -   78s
     0     0 145034.304    0  830 257850.000 145034.304  43.8%     -   87s
     0     0 145043.999    0  825 257850.000 145043.999  43.7%     -   89s
     0     0 160197.269    0  858 257850.000 160197.269  37.9%     -  108s
H    0     0                    257776.00000 165079.729  36.0%     -  121s
     0     0 165079.729    0  897 257776.000 165079.729  36.0%     -  121s
     0     0 165291.972    0  918 257776.000 165291.972  35.9%     -  128s
     0     0 165297.806    0  921 257776.000 165297.806  35.9%     -  129s
     0     0 173999.629    0  932 257776.000 173999.629  32.5%     -  154s
H    0     0                    257775.00000 173999.629  32.5%     -  154s
     0     0 175906.198    0  930 257775.000 175906.198  31.8%     -  184s
     0     0 176085.144    0  966 257775.000 176085.144  31.7%     -  194s
     0     0 176093.315    0  964 257775.000 176093.315  31.7%     -  196s
     0     0 187750.922    0  912 257775.000 187750.922  27.2%     -  216s
     0     0 191530.548    0  940 257775.000 191530.548  25.7%     -  234s
     0     0 191739.522    0  945 257775.000 191739.522  25.6%     -  242s
     0     0 191792.200    0  963 257775.000 191792.200  25.6%     -  246s
     0     0 191866.862    0  943 257775.000 191866.862  25.6%     -  251s
     0     0 191883.140    0  979 257775.000 191883.140  25.6%     -  254s
     0     0 198157.054    0  979 257775.000 198157.054  23.1%     -  272s
     0     0 200253.470    0 1048 257775.000 200253.470  22.3%     -  289s
     0     0 200927.323    0 1020 257775.000 200927.323  22.1%     -  300s
     0     0 201078.545    0 1052 257775.000 201078.545  22.0%     -  304s
     0     0 201079.214    0 1053 257775.000 201079.214  22.0%     -  305s
     0     0 205748.702    0 1043 257775.000 205748.702  20.2%     -  322s
     0     0 205748.702    0  526 257775.000 205748.702  20.2%     -  327s
H    0     0                    257746.00000 205748.702  20.2%     -  327s
     0     0 205748.702    0  709 257746.000 205748.702  20.2%     -  334s
     0     0 205748.702    0  816 257746.000 205748.702  20.2%     -  343s
     0     0 205748.702    0  894 257746.000 205748.702  20.2%     -  352s
     0     0 205748.702    0  982 257746.000 205748.702  20.2%     -  362s
     0     0 206203.820    0 1000 257746.000 206203.820  20.0%     -  371s
     0     0 206294.778    0 1039 257746.000 206294.778  20.0%     -  375s
     0     0 206341.361    0 1028 257746.000 206341.361  19.9%     -  378s
     0     0 206341.988    0 1028 257746.000 206341.988  19.9%     -  378s
     0     0 207683.963    0 1050 257746.000 207683.963  19.4%     -  388s
     0     0 208211.777    0 1068 257746.000 208211.777  19.2%     -  397s
     0     0 208280.853    0 1061 257746.000 208280.853  19.2%     -  400s
     0     0 208288.640    0 1072 257746.000 208288.640  19.2%     -  401s
     0     0 210033.250    0 1078 257746.000 210033.250  18.5%     -  414s
     0     0 210558.216    0 1125 257746.000 210558.216  18.3%     -  423s
     0     0 210730.814    0 1082 257746.000 210730.814  18.2%     -  428s
     0     0 210767.498    0 1100 257746.000 210767.498  18.2%     -  430s
     0     0 212468.834    0 1042 257746.000 212468.834  17.6%     -  442s
     0     0 212915.036    0 1143 257746.000 212915.036  17.4%     -  451s
     0     0 212951.367    0 1125 257746.000 212951.367  17.4%     -  454s
     0     0 214031.600    0 1169 257746.000 214031.600  17.0%     -  466s
H    0     0                    257745.00000 214031.600  17.0%     -  468s
     0     0 214440.267    0 1147 257745.000 214440.267  16.8%     -  476s
     0     0 214486.183    0 1195 257745.000 214486.183  16.8%     -  478s
     0     0 214921.786    0 1150 257745.000 214921.786  16.6%     -  486s
     0     0 215184.144    0 1172 257745.000 215184.144  16.5%     -  494s
     0     0 215268.841    0 1195 257745.000 215268.841  16.5%     -  499s
     0     0 215296.161    0 1213 257745.000 215296.161  16.5%     -  501s
     0     0 215610.933    0 1218 257745.000 215610.933  16.3%     -  511s
     0     0 215610.933    0 1200 257745.000 215610.933  16.3%     -  512s
H    0     0                    257671.00000 215610.933  16.3%     -  526s

Cutting planes:
  Clique: 153
  MIR: 223
  StrongCG: 98
  GUB cover: 168
  RLT: 1

Explored 1 nodes (1451539 simplex iterations) in 526.01 seconds (1377.50 work units)
Thread count was 8 (of 8 available processors)

Solution count 7: 257671 257745 257746 ... 257851

Time limit reached
Best objective 2.576710000000e+05, best bound 2.156109327571e+05, gap 16.3232%
